p wcnf 154 77 78 
1 97 101 0 
1 140 64 0 
1 -34 50 0 
1 76 152 0 
1 -92 99 0 
1 -3 -131 0 
1 -74 -11 0 
1 -43 98 0 
1 -61 -23 0 
1 -26 57 0 
1 33 75 0 
1 111 12 0 
1 -149 86 0 
1 -41 -137 0 
1 -17 -119 0 
1 -134 8 0 
1 121 40 0 
1 118 -117 0 
1 -4 -140 0 
1 73 96 0 
1 17 -64 0 
1 149 -113 0 
1 78 -30 0 
1 -103 129 0 
1 12 105 0 
1 121 10 0 
1 -48 -57 0 
1 73 -119 0 
1 9 -105 0 
1 -49 17 0 
1 -153 -66 0 
1 -46 -78 0 
1 -138 144 0 
1 -91 103 0 
1 -52 152 0 
1 48 151 0 
1 -59 64 0 
1 -125 120 0 
1 -70 -45 0 
1 -27 42 0 
1 -110 -144 0 
1 128 58 0 
1 -119 113 0 
1 67 -121 0 
1 -83 130 0 
1 -4 -115 0 
1 -34 3 0 
1 -90 106 0 
1 72 88 0 
1 15 -36 0 
1 115 -64 0 
1 127 60 0 
1 -72 -64 0 
1 114 93 0 
1 64 -117 0 
1 8 -154 0 
1 -51 -36 0 
1 118 44 0 
1 117 55 0 
1 -74 94 0 
1 -106 107 0 
1 101 135 0 
1 -66 -58 0 
1 -75 18 0 
1 29 -143 0 
1 18 -132 0 
1 -12 109 0 
1 -151 45 0 
1 21 -44 0 
1 -28 59 0 
1 -114 -101 0 
1 75 -126 0 
1 -67 -130 0 
1 -22 97 0 
1 -35 -137 0 
1 -114 21 0 
1 -36 -100 0 
